[[38, 10, 31, 58, 72, 39, 12, 40, 9, 25, 55, 18, 50, 32, 44, 3, 24, 49, 16, 51, 33, 63, 23], [56, 43, 41, 42, 64, 22, 73, 62, 2, 74, 28, 61, 21, 47, 69, 36, 71, 60, 70, 20, 37, 5, 15, 57], [54, 13, 27, 45, 29, 48, 30, 4, 68, 75, 6, 17, 76, 26, 67, 34, 52, 46, 7, 8, 35, 19, 53, 14, 59, 11, 66, 65]]